32	0

0	4	2	3	4	5
10	2	7	8
4	3	6	7	8
7	2	7	8
1	3	6	7	8
10	2	10	11
6	2	10	11
1	1	9
8	2	10	11
2	2	12	13
3	1	12
3	1	14
10	2	15	16
6	2	15	16
8	3	18	19	20
5	1	17
3	3	18	19	20
4	1	21
3	1	21
9	5	22	23	24	27	28
8	5	22	23	24	27	28
3	2	25	26
5	2	25	26
3	2	25	26
10	1	30
6	1	29
10	1	29
6	1	29
5	1	30
6	1	31
9	1	32
0	0
